(declare-const X String)
; Host\x3A\dName=Your\+Host\+is\x3A.*has\s+ComputerKeylogger\x2EcomHost\x3A
(assert (not (str.in_re X (re.++ (str.to_re "Host:") (re.range "0" "9") (str.to_re "Name=Your+Host+is:") (re.* re.allchar) (str.to_re "has") (re.+ (re.union (str.to_re " ") (str.to_re "\u{9}") (str.to_re "\u{a}") (str.to_re "\u{c}") (str.to_re "\u{d}"))) (str.to_re "ComputerKeylogger.comHost:\u{a}")))))
; ^[0-9]*\/{1}[1-9]{1}[0-9]*$
(assert (str.in_re X (re.++ (re.* (re.range "0" "9")) ((_ re.loop 1 1) (str.to_re "/")) ((_ re.loop 1 1) (re.range "1" "9")) (re.* (re.range "0" "9")) (str.to_re "\u{a}"))))
; ^[^\x00-\x1f\x21-\x26\x28-\x2d\x2f-\x40\x5b-\x60\x7b-\xff]+$
(assert (not (str.in_re X (re.++ (re.+ (re.union (re.range "\u{0}" "\u{1f}") (re.range "!" "&") (re.range "(" "-") (re.range "/" "@") (re.range "[" "`") (re.range "{" "\u{ff}"))) (str.to_re "\u{a}")))))
(check-sat)
